18 4
102 94 73 69 70 62 5 64 62 20 37 30 46 16 45 40 56 86
94 77 72 64 50 65 35 80 45 33 39 51 56 41 44 34 70 108
78 88 82 51 72 60 26 85 69 10 41 37 57 39 44 39 44 111
105 84 59 54 59 55 19 76 45 30 36 41 37 29 46 43 60 100
